\ENCODING=ISO-8859-1
\Problem name: model

Minimize
 obj1: 10 y_0_1 + 8 y_0_2 + 7 y_0_3 + y_0_4 + y_0_5 + 2 y_0_6 + 9 y_0_7 + y_0_8
       + 5 y_0_9 + 4 y_0_10 + 10 y_0_11 + 7 y_0_12 + 5 y_0_13 + 8 y_0_14
       + 8 y_0_15 + 4 y_0_16 + 10 y_0_17 + y_0_18 + 5 y_0_19 + 10 y_1_0 + y_1_2
       + 6 y_1_3 + 8 y_1_4 + 7 y_1_5 + 9 y_1_6 + 6 y_1_7 + 5 y_1_8 + 10 y_1_9
       + 8 y_1_10 + 5 y_1_11 + 5 y_1_12 + 9 y_1_13 + 2 y_1_14 + 2 y_1_15
       + 4 y_1_16 + 5 y_1_17 + 5 y_1_18 + 7 y_1_19 + 8 y_2_0 + y_2_1 + 9 y_2_3
       + 2 y_2_4 + 8 y_2_5 + 3 y_2_6 + 10 y_2_7 + 2 y_2_8 + 3 y_2_9 + 8 y_2_10
       + 5 y_2_11 + 2 y_2_12 + y_2_13 + 9 y_2_14 + 4 y_2_15 + y_2_16 + 5 y_2_17
       + 10 y_2_18 + 9 y_2_19 + 7 y_3_0 + 6 y_3_1 + 9 y_3_2 + 10 y_3_4
       + 8 y_3_5 + 6 y_3_6 + 4 y_3_7 + y_3_8 + 9 y_3_9 + 2 y_3_10 + 7 y_3_11
       + 7 y_3_12 + 10 y_3_13 + 10 y_3_14 + 6 y_3_15 + 6 y_3_16 + 2 y_3_17
       + 8 y_3_18 + 8 y_3_19 + y_4_0 + 8 y_4_1 + 2 y_4_2 + 10 y_4_3 + 2 y_4_5
       + 4 y_4_6 + 8 y_4_7 + y_4_8 + 10 y_4_9 + 8 y_4_10 + 6 y_4_11 + 6 y_4_12
       + 4 y_4_13 + 6 y_4_14 + 2 y_4_15 + 5 y_4_16 + 6 y_4_17 + 4 y_4_18
       + y_4_19 + y_5_0 + 7 y_5_1 + 8 y_5_2 + 8 y_5_3 + 2 y_5_4 + 10 y_5_6
       + 10 y_5_7 + 9 y_5_8 + 9 y_5_9 + 9 y_5_10 + 9 y_5_11 + 10 y_5_12
       + 8 y_5_13 + 9 y_5_14 + 9 y_5_15 + 5 y_5_16 + 5 y_5_17 + 10 y_5_18
       + 2 y_5_19 + 2 y_6_0 + 9 y_6_1 + 3 y_6_2 + 6 y_6_3 + 4 y_6_4 + 10 y_6_5
       + 2 y_6_7 + 8 y_6_8 + 2 y_6_9 + 10 y_6_10 + 9 y_6_11 + 6 y_6_12
       + 8 y_6_13 + 8 y_6_14 + y_6_15 + 6 y_6_16 + y_6_17 + 8 y_6_18 + 8 y_6_19
       + 9 y_7_0 + 6 y_7_1 + 10 y_7_2 + 4 y_7_3 + 8 y_7_4 + 10 y_7_5 + 2 y_7_6
       + 7 y_7_8 + 2 y_7_9 + 7 y_7_10 + 2 y_7_11 + 3 y_7_12 + 8 y_7_13
       + 9 y_7_14 + 4 y_7_15 + 3 y_7_16 + 2 y_7_17 + 10 y_7_18 + 5 y_7_19
       + y_8_0 + 5 y_8_1 + 2 y_8_2 + y_8_3 + y_8_4 + 9 y_8_5 + 8 y_8_6
       + 7 y_8_7 + 8 y_8_9 + 8 y_8_10 + 9 y_8_11 + y_8_12 + y_8_13 + 3 y_8_14
       + 2 y_8_15 + 3 y_8_16 + 2 y_8_17 + 5 y_8_18 + 7 y_8_19 + 5 y_9_0
       + 10 y_9_1 + 3 y_9_2 + 9 y_9_3 + 10 y_9_4 + 9 y_9_5 + 2 y_9_6 + 2 y_9_7
       + 8 y_9_8 + 3 y_9_10 + y_9_11 + 5 y_9_12 + 6 y_9_13 + 4 y_9_14
       + 8 y_9_15 + 5 y_9_16 + 8 y_9_17 + 2 y_9_18 + 8 y_9_19 + 4 y_10_0
       + 8 y_10_1 + 8 y_10_2 + 2 y_10_3 + 8 y_10_4 + 9 y_10_5 + 10 y_10_6
       + 7 y_10_7 + 8 y_10_8 + 3 y_10_9 + 8 y_10_11 + 10 y_10_12 + 10 y_10_13
       + 2 y_10_14 + 3 y_10_15 + 2 y_10_16 + 9 y_10_17 + 5 y_10_18 + 5 y_10_19
       + 10 y_11_0 + 5 y_11_1 + 5 y_11_2 + 7 y_11_3 + 6 y_11_4 + 9 y_11_5
       + 9 y_11_6 + 2 y_11_7 + 9 y_11_8 + y_11_9 + 8 y_11_10 + 3 y_11_12
       + 6 y_11_13 + 4 y_11_14 + 4 y_11_15 + 9 y_11_16 + 6 y_11_17 + y_11_18
       + 7 y_11_19 + 7 y_12_0 + 5 y_12_1 + 2 y_12_2 + 7 y_12_3 + 6 y_12_4
       + 10 y_12_5 + 6 y_12_6 + 3 y_12_7 + y_12_8 + 5 y_12_9 + 10 y_12_10
       + 3 y_12_11 + 7 y_12_13 + 5 y_12_14 + 8 y_12_15 + y_12_16 + 2 y_12_17
       + y_12_18 + 5 y_12_19 + 5 y_13_0 + 9 y_13_1 + y_13_2 + 10 y_13_3
       + 4 y_13_4 + 8 y_13_5 + 8 y_13_6 + 8 y_13_7 + y_13_8 + 6 y_13_9
       + 10 y_13_10 + 6 y_13_11 + 7 y_13_12 + 3 y_13_14 + 8 y_13_15 + 2 y_13_16
       + y_13_17 + 10 y_13_18 + 7 y_13_19 + 8 y_14_0 + 2 y_14_1 + 9 y_14_2
       + 10 y_14_3 + 6 y_14_4 + 9 y_14_5 + 8 y_14_6 + 9 y_14_7 + 3 y_14_8
       + 4 y_14_9 + 2 y_14_10 + 4 y_14_11 + 5 y_14_12 + 3 y_14_13 + 9 y_14_15
       + 5 y_14_16 + 9 y_14_17 + 10 y_14_18 + 10 y_14_19 + 8 y_15_0 + 2 y_15_1
       + 4 y_15_2 + 6 y_15_3 + 2 y_15_4 + 9 y_15_5 + y_15_6 + 4 y_15_7
       + 2 y_15_8 + 8 y_15_9 + 3 y_15_10 + 4 y_15_11 + 8 y_15_12 + 8 y_15_13
       + 9 y_15_14 + 10 y_15_16 + y_15_17 + 5 y_15_18 + 7 y_15_19 + 4 y_16_0
       + 4 y_16_1 + y_16_2 + 6 y_16_3 + 5 y_16_4 + 5 y_16_5 + 6 y_16_6
       + 3 y_16_7 + 3 y_16_8 + 5 y_16_9 + 2 y_16_10 + 9 y_16_11 + y_16_12
       + 2 y_16_13 + 5 y_16_14 + 10 y_16_15 + 9 y_16_17 + 3 y_16_18 + 6 y_16_19
       + 10 y_17_0 + 5 y_17_1 + 5 y_17_2 + 2 y_17_3 + 6 y_17_4 + 5 y_17_5
       + y_17_6 + 2 y_17_7 + 2 y_17_8 + 8 y_17_9 + 9 y_17_10 + 6 y_17_11
       + 2 y_17_12 + y_17_13 + 9 y_17_14 + y_17_15 + 9 y_17_16 + 9 y_17_18
       + 9 y_17_19 + y_18_0 + 5 y_18_1 + 10 y_18_2 + 8 y_18_3 + 4 y_18_4
       + 10 y_18_5 + 8 y_18_6 + 10 y_18_7 + 5 y_18_8 + 2 y_18_9 + 5 y_18_10
       + y_18_11 + y_18_12 + 10 y_18_13 + 10 y_18_14 + 5 y_18_15 + 3 y_18_16
       + 9 y_18_17 + 4 y_18_19 + 5 y_19_0 + 7 y_19_1 + 9 y_19_2 + 8 y_19_3
       + y_19_4 + 2 y_19_5 + 8 y_19_6 + 5 y_19_7 + 7 y_19_8 + 8 y_19_9
       + 5 y_19_10 + 7 y_19_11 + 5 y_19_12 + 7 y_19_13 + 10 y_19_14 + 7 y_19_15
       + 6 y_19_16 + 9 y_19_17 + 4 y_19_18 + 0 u_17
Subject To
 c1:   y_0_1 + y_0_2 + y_0_3 + y_0_4 + y_0_5 + y_0_6 + y_0_7 + y_0_8 + y_0_9
       + y_0_10 + y_0_11 + y_0_12 + y_0_13 + y_0_14 + y_0_15 + y_0_16 + y_0_17
       + y_0_18 + y_0_19  = 1
 c2:   y_1_0 + y_1_2 + y_1_3 + y_1_4 + y_1_5 + y_1_6 + y_1_7 + y_1_8 + y_1_9
       + y_1_10 + y_1_11 + y_1_12 + y_1_13 + y_1_14 + y_1_15 + y_1_16 + y_1_17
       + y_1_18 + y_1_19  = 1
 c3:   y_2_0 + y_2_1 + y_2_3 + y_2_4 + y_2_5 + y_2_6 + y_2_7 + y_2_8 + y_2_9
       + y_2_10 + y_2_11 + y_2_12 + y_2_13 + y_2_14 + y_2_15 + y_2_16 + y_2_17
       + y_2_18 + y_2_19  = 1
 c4:   y_3_0 + y_3_1 + y_3_2 + y_3_4 + y_3_5 + y_3_6 + y_3_7 + y_3_8 + y_3_9
       + y_3_10 + y_3_11 + y_3_12 + y_3_13 + y_3_14 + y_3_15 + y_3_16 + y_3_17
       + y_3_18 + y_3_19  = 1
 c5:   y_4_0 + y_4_1 + y_4_2 + y_4_3 + y_4_5 + y_4_6 + y_4_7 + y_4_8 + y_4_9
       + y_4_10 + y_4_11 + y_4_12 + y_4_13 + y_4_14 + y_4_15 + y_4_16 + y_4_17
       + y_4_18 + y_4_19  = 1
 c6:   y_5_0 + y_5_1 + y_5_2 + y_5_3 + y_5_4 + y_5_6 + y_5_7 + y_5_8 + y_5_9
       + y_5_10 + y_5_11 + y_5_12 + y_5_13 + y_5_14 + y_5_15 + y_5_16 + y_5_17
       + y_5_18 + y_5_19  = 1
 c7:   y_6_0 + y_6_1 + y_6_2 + y_6_3 + y_6_4 + y_6_5 + y_6_7 + y_6_8 + y_6_9
       + y_6_10 + y_6_11 + y_6_12 + y_6_13 + y_6_14 + y_6_15 + y_6_16 + y_6_17
       + y_6_18 + y_6_19  = 1
 c8:   y_7_0 + y_7_1 + y_7_2 + y_7_3 + y_7_4 + y_7_5 + y_7_6 + y_7_8 + y_7_9
       + y_7_10 + y_7_11 + y_7_12 + y_7_13 + y_7_14 + y_7_15 + y_7_16 + y_7_17
       + y_7_18 + y_7_19  = 1
 c9:   y_8_0 + y_8_1 + y_8_2 + y_8_3 + y_8_4 + y_8_5 + y_8_6 + y_8_7 + y_8_9
       + y_8_10 + y_8_11 + y_8_12 + y_8_13 + y_8_14 + y_8_15 + y_8_16 + y_8_17
       + y_8_18 + y_8_19  = 1
 c10:  y_9_0 + y_9_1 + y_9_2 + y_9_3 + y_9_4 + y_9_5 + y_9_6 + y_9_7 + y_9_8
       + y_9_10 + y_9_11 + y_9_12 + y_9_13 + y_9_14 + y_9_15 + y_9_16 + y_9_17
       + y_9_18 + y_9_19  = 1
 c11:  y_10_0 + y_10_1 + y_10_2 + y_10_3 + y_10_4 + y_10_5 + y_10_6 + y_10_7
       + y_10_8 + y_10_9 + y_10_11 + y_10_12 + y_10_13 + y_10_14 + y_10_15
       + y_10_16 + y_10_17 + y_10_18 + y_10_19  = 1
 c12:  y_11_0 + y_11_1 + y_11_2 + y_11_3 + y_11_4 + y_11_5 + y_11_6 + y_11_7
       + y_11_8 + y_11_9 + y_11_10 + y_11_12 + y_11_13 + y_11_14 + y_11_15
       + y_11_16 + y_11_17 + y_11_18 + y_11_19  = 1
 c13:  y_12_0 + y_12_1 + y_12_2 + y_12_3 + y_12_4 + y_12_5 + y_12_6 + y_12_7
       + y_12_8 + y_12_9 + y_12_10 + y_12_11 + y_12_13 + y_12_14 + y_12_15
       + y_12_16 + y_12_17 + y_12_18 + y_12_19  = 1
 c14:  y_13_0 + y_13_1 + y_13_2 + y_13_3 + y_13_4 + y_13_5 + y_13_6 + y_13_7
       + y_13_8 + y_13_9 + y_13_10 + y_13_11 + y_13_12 + y_13_14 + y_13_15
       + y_13_16 + y_13_17 + y_13_18 + y_13_19  = 1
 c15:  y_14_0 + y_14_1 + y_14_2 + y_14_3 + y_14_4 + y_14_5 + y_14_6 + y_14_7
       + y_14_8 + y_14_9 + y_14_10 + y_14_11 + y_14_12 + y_14_13 + y_14_15
       + y_14_16 + y_14_17 + y_14_18 + y_14_19  = 1
 c16:  y_15_0 + y_15_1 + y_15_2 + y_15_3 + y_15_4 + y_15_5 + y_15_6 + y_15_7
       + y_15_8 + y_15_9 + y_15_10 + y_15_11 + y_15_12 + y_15_13 + y_15_14
       + y_15_16 + y_15_17 + y_15_18 + y_15_19  = 1
 c17:  y_16_0 + y_16_1 + y_16_2 + y_16_3 + y_16_4 + y_16_5 + y_16_6 + y_16_7
       + y_16_8 + y_16_9 + y_16_10 + y_16_11 + y_16_12 + y_16_13 + y_16_14
       + y_16_15 + y_16_17 + y_16_18 + y_16_19  = 1
 c18:  y_17_0 + y_17_1 + y_17_2 + y_17_3 + y_17_4 + y_17_5 + y_17_6 + y_17_7
       + y_17_8 + y_17_9 + y_17_10 + y_17_11 + y_17_12 + y_17_13 + y_17_14
       + y_17_15 + y_17_16 + y_17_18 + y_17_19  = 1
 c19:  y_18_0 + y_18_1 + y_18_2 + y_18_3 + y_18_4 + y_18_5 + y_18_6 + y_18_7
       + y_18_8 + y_18_9 + y_18_10 + y_18_11 + y_18_12 + y_18_13 + y_18_14
       + y_18_15 + y_18_16 + y_18_17 + y_18_19  = 1
 c20:  y_19_0 + y_19_1 + y_19_2 + y_19_3 + y_19_4 + y_19_5 + y_19_6 + y_19_7
       + y_19_8 + y_19_9 + y_19_10 + y_19_11 + y_19_12 + y_19_13 + y_19_14
       + y_19_15 + y_19_16 + y_19_17 + y_19_18  = 1
 c21:  y_1_0 + y_2_0 + y_3_0 + y_4_0 + y_5_0 + y_6_0 + y_7_0 + y_8_0 + y_9_0
       + y_10_0 + y_11_0 + y_12_0 + y_13_0 + y_14_0 + y_15_0 + y_16_0 + y_17_0
       + y_18_0 + y_19_0  = 1
 c22:  y_0_1 + y_2_1 + y_3_1 + y_4_1 + y_5_1 + y_6_1 + y_7_1 + y_8_1 + y_9_1
       + y_10_1 + y_11_1 + y_12_1 + y_13_1 + y_14_1 + y_15_1 + y_16_1 + y_17_1
       + y_18_1 + y_19_1  = 1
 c23:  y_0_2 + y_1_2 + y_3_2 + y_4_2 + y_5_2 + y_6_2 + y_7_2 + y_8_2 + y_9_2
       + y_10_2 + y_11_2 + y_12_2 + y_13_2 + y_14_2 + y_15_2 + y_16_2 + y_17_2
       + y_18_2 + y_19_2  = 1
 c24:  y_0_3 + y_1_3 + y_2_3 + y_4_3 + y_5_3 + y_6_3 + y_7_3 + y_8_3 + y_9_3
       + y_10_3 + y_11_3 + y_12_3 + y_13_3 + y_14_3 + y_15_3 + y_16_3 + y_17_3
       + y_18_3 + y_19_3  = 1
 c25:  y_0_4 + y_1_4 + y_2_4 + y_3_4 + y_5_4 + y_6_4 + y_7_4 + y_8_4 + y_9_4
       + y_10_4 + y_11_4 + y_12_4 + y_13_4 + y_14_4 + y_15_4 + y_16_4 + y_17_4
       + y_18_4 + y_19_4  = 1
 c26:  y_0_5 + y_1_5 + y_2_5 + y_3_5 + y_4_5 + y_6_5 + y_7_5 + y_8_5 + y_9_5
       + y_10_5 + y_11_5 + y_12_5 + y_13_5 + y_14_5 + y_15_5 + y_16_5 + y_17_5
       + y_18_5 + y_19_5  = 1
 c27:  y_0_6 + y_1_6 + y_2_6 + y_3_6 + y_4_6 + y_5_6 + y_7_6 + y_8_6 + y_9_6
       + y_10_6 + y_11_6 + y_12_6 + y_13_6 + y_14_6 + y_15_6 + y_16_6 + y_17_6
       + y_18_6 + y_19_6  = 1
 c28:  y_0_7 + y_1_7 + y_2_7 + y_3_7 + y_4_7 + y_5_7 + y_6_7 + y_8_7 + y_9_7
       + y_10_7 + y_11_7 + y_12_7 + y_13_7 + y_14_7 + y_15_7 + y_16_7 + y_17_7
       + y_18_7 + y_19_7  = 1
 c29:  y_0_8 + y_1_8 + y_2_8 + y_3_8 + y_4_8 + y_5_8 + y_6_8 + y_7_8 + y_9_8
       + y_10_8 + y_11_8 + y_12_8 + y_13_8 + y_14_8 + y_15_8 + y_16_8 + y_17_8
       + y_18_8 + y_19_8  = 1
 c30:  y_0_9 + y_1_9 + y_2_9 + y_3_9 + y_4_9 + y_5_9 + y_6_9 + y_7_9 + y_8_9
       + y_10_9 + y_11_9 + y_12_9 + y_13_9 + y_14_9 + y_15_9 + y_16_9 + y_17_9
       + y_18_9 + y_19_9  = 1
 c31:  y_0_10 + y_1_10 + y_2_10 + y_3_10 + y_4_10 + y_5_10 + y_6_10 + y_7_10
       + y_8_10 + y_9_10 + y_11_10 + y_12_10 + y_13_10 + y_14_10 + y_15_10
       + y_16_10 + y_17_10 + y_18_10 + y_19_10  = 1
 c32:  y_0_11 + y_1_11 + y_2_11 + y_3_11 + y_4_11 + y_5_11 + y_6_11 + y_7_11
       + y_8_11 + y_9_11 + y_10_11 + y_12_11 + y_13_11 + y_14_11 + y_15_11
       + y_16_11 + y_17_11 + y_18_11 + y_19_11  = 1
 c33:  y_0_12 + y_1_12 + y_2_12 + y_3_12 + y_4_12 + y_5_12 + y_6_12 + y_7_12
       + y_8_12 + y_9_12 + y_10_12 + y_11_12 + y_13_12 + y_14_12 + y_15_12
       + y_16_12 + y_17_12 + y_18_12 + y_19_12  = 1
 c34:  y_0_13 + y_1_13 + y_2_13 + y_3_13 + y_4_13 + y_5_13 + y_6_13 + y_7_13
       + y_8_13 + y_9_13 + y_10_13 + y_11_13 + y_12_13 + y_14_13 + y_15_13
       + y_16_13 + y_17_13 + y_18_13 + y_19_13  = 1
 c35:  y_0_14 + y_1_14 + y_2_14 + y_3_14 + y_4_14 + y_5_14 + y_6_14 + y_7_14
       + y_8_14 + y_9_14 + y_10_14 + y_11_14 + y_12_14 + y_13_14 + y_15_14
       + y_16_14 + y_17_14 + y_18_14 + y_19_14  = 1
 c36:  y_0_15 + y_1_15 + y_2_15 + y_3_15 + y_4_15 + y_5_15 + y_6_15 + y_7_15
       + y_8_15 + y_9_15 + y_10_15 + y_11_15 + y_12_15 + y_13_15 + y_14_15
       + y_16_15 + y_17_15 + y_18_15 + y_19_15  = 1
 c37:  y_0_16 + y_1_16 + y_2_16 + y_3_16 + y_4_16 + y_5_16 + y_6_16 + y_7_16
       + y_8_16 + y_9_16 + y_10_16 + y_11_16 + y_12_16 + y_13_16 + y_14_16
       + y_15_16 + y_17_16 + y_18_16 + y_19_16  = 1
 c38:  y_0_17 + y_1_17 + y_2_17 + y_3_17 + y_4_17 + y_5_17 + y_6_17 + y_7_17
       + y_8_17 + y_9_17 + y_10_17 + y_11_17 + y_12_17 + y_13_17 + y_14_17
       + y_15_17 + y_16_17 + y_18_17 + y_19_17  = 1
 c39:  y_0_18 + y_1_18 + y_2_18 + y_3_18 + y_4_18 + y_5_18 + y_6_18 + y_7_18
       + y_8_18 + y_9_18 + y_10_18 + y_11_18 + y_12_18 + y_13_18 + y_14_18
       + y_15_18 + y_16_18 + y_17_18 + y_19_18  = 1
 c40:  y_0_19 + y_1_19 + y_2_19 + y_3_19 + y_4_19 + y_5_19 + y_6_19 + y_7_19
       + y_8_19 + y_9_19 + y_10_19 + y_11_19 + y_12_19 + y_13_19 + y_14_19
       + y_15_19 + y_16_19 + y_17_19 + y_18_19  = 1
 c41:  19 y_0_1 + 17 y_1_0 + u_0 - u_1 <= 18
 c42:  19 y_0_2 + 17 y_2_0 + u_0 - u_2 <= 18
 c43:  19 y_0_3 + 17 y_3_0 + u_0 - u_3 <= 18
 c44:  19 y_0_4 + 17 y_4_0 + u_0 - u_4 <= 18
 c45:  19 y_0_5 + 17 y_5_0 + u_0 - u_5 <= 18
 c46:  19 y_0_6 + 17 y_6_0 + u_0 - u_6 <= 18
 c47:  19 y_0_7 + 17 y_7_0 + u_0 - u_7 <= 18
 c48:  19 y_0_8 + 17 y_8_0 + u_0 - u_8 <= 18
 c49:  19 y_0_9 + 17 y_9_0 + u_0 - u_9 <= 18
 c50:  19 y_0_10 + 17 y_10_0 + u_0 - u_10 <= 18
 c51:  19 y_0_11 + 17 y_11_0 + u_0 - u_11 <= 18
 c52:  19 y_0_12 + 17 y_12_0 + u_0 - u_12 <= 18
 c53:  19 y_0_13 + 17 y_13_0 + u_0 - u_13 <= 18
 c54:  19 y_0_14 + 17 y_14_0 + u_0 - u_14 <= 18
 c55:  19 y_0_15 + 17 y_15_0 + u_0 - u_15 <= 18
 c56:  19 y_0_16 + 17 y_16_0 + u_0 - u_16 <= 18
 c57:  19 y_0_18 + 17 y_18_0 + u_0 - u_18 <= 18
 c58:  19 y_0_19 + 17 y_19_0 + u_0 - u_19 <= 18
 c59:  17 y_0_1 + 19 y_1_0 - u_0 + u_1 <= 18
 c60:  19 y_1_2 + 17 y_2_1 + u_1 - u_2 <= 18
 c61:  19 y_1_3 + 17 y_3_1 + u_1 - u_3 <= 18
 c62:  19 y_1_4 + 17 y_4_1 + u_1 - u_4 <= 18
 c63:  19 y_1_5 + 17 y_5_1 + u_1 - u_5 <= 18
 c64:  19 y_1_6 + 17 y_6_1 + u_1 - u_6 <= 18
 c65:  19 y_1_7 + 17 y_7_1 + u_1 - u_7 <= 18
 c66:  19 y_1_8 + 17 y_8_1 + u_1 - u_8 <= 18
 c67:  19 y_1_9 + 17 y_9_1 + u_1 - u_9 <= 18
 c68:  19 y_1_10 + 17 y_10_1 + u_1 - u_10 <= 18
 c69:  19 y_1_11 + 17 y_11_1 + u_1 - u_11 <= 18
 c70:  19 y_1_12 + 17 y_12_1 + u_1 - u_12 <= 18
 c71:  19 y_1_13 + 17 y_13_1 + u_1 - u_13 <= 18
 c72:  19 y_1_14 + 17 y_14_1 + u_1 - u_14 <= 18
 c73:  19 y_1_15 + 17 y_15_1 + u_1 - u_15 <= 18
 c74:  19 y_1_16 + 17 y_16_1 + u_1 - u_16 <= 18
 c75:  19 y_1_18 + 17 y_18_1 + u_1 - u_18 <= 18
 c76:  19 y_1_19 + 17 y_19_1 + u_1 - u_19 <= 18
 c77:  17 y_0_2 + 19 y_2_0 - u_0 + u_2 <= 18
 c78:  17 y_1_2 + 19 y_2_1 - u_1 + u_2 <= 18
 c79:  19 y_2_3 + 17 y_3_2 + u_2 - u_3 <= 18
 c80:  19 y_2_4 + 17 y_4_2 + u_2 - u_4 <= 18
 c81:  19 y_2_5 + 17 y_5_2 + u_2 - u_5 <= 18
 c82:  19 y_2_6 + 17 y_6_2 + u_2 - u_6 <= 18
 c83:  19 y_2_7 + 17 y_7_2 + u_2 - u_7 <= 18
 c84:  19 y_2_8 + 17 y_8_2 + u_2 - u_8 <= 18
 c85:  19 y_2_9 + 17 y_9_2 + u_2 - u_9 <= 18
 c86:  19 y_2_10 + 17 y_10_2 + u_2 - u_10 <= 18
 c87:  19 y_2_11 + 17 y_11_2 + u_2 - u_11 <= 18
 c88:  19 y_2_12 + 17 y_12_2 + u_2 - u_12 <= 18
 c89:  19 y_2_13 + 17 y_13_2 + u_2 - u_13 <= 18
 c90:  19 y_2_14 + 17 y_14_2 + u_2 - u_14 <= 18
 c91:  19 y_2_15 + 17 y_15_2 + u_2 - u_15 <= 18
 c92:  19 y_2_16 + 17 y_16_2 + u_2 - u_16 <= 18
 c93:  19 y_2_18 + 17 y_18_2 + u_2 - u_18 <= 18
 c94:  19 y_2_19 + 17 y_19_2 + u_2 - u_19 <= 18
 c95:  17 y_0_3 + 19 y_3_0 - u_0 + u_3 <= 18
 c96:  17 y_1_3 + 19 y_3_1 - u_1 + u_3 <= 18
 c97:  17 y_2_3 + 19 y_3_2 - u_2 + u_3 <= 18
 c98:  19 y_3_4 + 17 y_4_3 + u_3 - u_4 <= 18
 c99:  19 y_3_5 + 17 y_5_3 + u_3 - u_5 <= 18
 c100: 19 y_3_6 + 17 y_6_3 + u_3 - u_6 <= 18
 c101: 19 y_3_7 + 17 y_7_3 + u_3 - u_7 <= 18
 c102: 19 y_3_8 + 17 y_8_3 + u_3 - u_8 <= 18
 c103: 19 y_3_9 + 17 y_9_3 + u_3 - u_9 <= 18
 c104: 19 y_3_10 + 17 y_10_3 + u_3 - u_10 <= 18
 c105: 19 y_3_11 + 17 y_11_3 + u_3 - u_11 <= 18
 c106: 19 y_3_12 + 17 y_12_3 + u_3 - u_12 <= 18
 c107: 19 y_3_13 + 17 y_13_3 + u_3 - u_13 <= 18
 c108: 19 y_3_14 + 17 y_14_3 + u_3 - u_14 <= 18
 c109: 19 y_3_15 + 17 y_15_3 + u_3 - u_15 <= 18
 c110: 19 y_3_16 + 17 y_16_3 + u_3 - u_16 <= 18
 c111: 19 y_3_18 + 17 y_18_3 + u_3 - u_18 <= 18
 c112: 19 y_3_19 + 17 y_19_3 + u_3 - u_19 <= 18
 c113: 17 y_0_4 + 19 y_4_0 - u_0 + u_4 <= 18
 c114: 17 y_1_4 + 19 y_4_1 - u_1 + u_4 <= 18
 c115: 17 y_2_4 + 19 y_4_2 - u_2 + u_4 <= 18
 c116: 17 y_3_4 + 19 y_4_3 - u_3 + u_4 <= 18
 c117: 19 y_4_5 + 17 y_5_4 + u_4 - u_5 <= 18
 c118: 19 y_4_6 + 17 y_6_4 + u_4 - u_6 <= 18
 c119: 19 y_4_7 + 17 y_7_4 + u_4 - u_7 <= 18
 c120: 19 y_4_8 + 17 y_8_4 + u_4 - u_8 <= 18
 c121: 19 y_4_9 + 17 y_9_4 + u_4 - u_9 <= 18
 c122: 19 y_4_10 + 17 y_10_4 + u_4 - u_10 <= 18
 c123: 19 y_4_11 + 17 y_11_4 + u_4 - u_11 <= 18
 c124: 19 y_4_12 + 17 y_12_4 + u_4 - u_12 <= 18
 c125: 19 y_4_13 + 17 y_13_4 + u_4 - u_13 <= 18
 c126: 19 y_4_14 + 17 y_14_4 + u_4 - u_14 <= 18
 c127: 19 y_4_15 + 17 y_15_4 + u_4 - u_15 <= 18
 c128: 19 y_4_16 + 17 y_16_4 + u_4 - u_16 <= 18
 c129: 19 y_4_18 + 17 y_18_4 + u_4 - u_18 <= 18
 c130: 19 y_4_19 + 17 y_19_4 + u_4 - u_19 <= 18
 c131: 17 y_0_5 + 19 y_5_0 - u_0 + u_5 <= 18
 c132: 17 y_1_5 + 19 y_5_1 - u_1 + u_5 <= 18
 c133: 17 y_2_5 + 19 y_5_2 - u_2 + u_5 <= 18
 c134: 17 y_3_5 + 19 y_5_3 - u_3 + u_5 <= 18
 c135: 17 y_4_5 + 19 y_5_4 - u_4 + u_5 <= 18
 c136: 19 y_5_6 + 17 y_6_5 + u_5 - u_6 <= 18
 c137: 19 y_5_7 + 17 y_7_5 + u_5 - u_7 <= 18
 c138: 19 y_5_8 + 17 y_8_5 + u_5 - u_8 <= 18
 c139: 19 y_5_9 + 17 y_9_5 + u_5 - u_9 <= 18
 c140: 19 y_5_10 + 17 y_10_5 + u_5 - u_10 <= 18
 c141: 19 y_5_11 + 17 y_11_5 + u_5 - u_11 <= 18
 c142: 19 y_5_12 + 17 y_12_5 + u_5 - u_12 <= 18
 c143: 19 y_5_13 + 17 y_13_5 + u_5 - u_13 <= 18
 c144: 19 y_5_14 + 17 y_14_5 + u_5 - u_14 <= 18
 c145: 19 y_5_15 + 17 y_15_5 + u_5 - u_15 <= 18
 c146: 19 y_5_16 + 17 y_16_5 + u_5 - u_16 <= 18
 c147: 19 y_5_18 + 17 y_18_5 + u_5 - u_18 <= 18
 c148: 19 y_5_19 + 17 y_19_5 + u_5 - u_19 <= 18
 c149: 17 y_0_6 + 19 y_6_0 - u_0 + u_6 <= 18
 c150: 17 y_1_6 + 19 y_6_1 - u_1 + u_6 <= 18
 c151: 17 y_2_6 + 19 y_6_2 - u_2 + u_6 <= 18
 c152: 17 y_3_6 + 19 y_6_3 - u_3 + u_6 <= 18
 c153: 17 y_4_6 + 19 y_6_4 - u_4 + u_6 <= 18
 c154: 17 y_5_6 + 19 y_6_5 - u_5 + u_6 <= 18
 c155: 19 y_6_7 + 17 y_7_6 + u_6 - u_7 <= 18
 c156: 19 y_6_8 + 17 y_8_6 + u_6 - u_8 <= 18
 c157: 19 y_6_9 + 17 y_9_6 + u_6 - u_9 <= 18
 c158: 19 y_6_10 + 17 y_10_6 + u_6 - u_10 <= 18
 c159: 19 y_6_11 + 17 y_11_6 + u_6 - u_11 <= 18
 c160: 19 y_6_12 + 17 y_12_6 + u_6 - u_12 <= 18
 c161: 19 y_6_13 + 17 y_13_6 + u_6 - u_13 <= 18
 c162: 19 y_6_14 + 17 y_14_6 + u_6 - u_14 <= 18
 c163: 19 y_6_15 + 17 y_15_6 + u_6 - u_15 <= 18
 c164: 19 y_6_16 + 17 y_16_6 + u_6 - u_16 <= 18
 c165: 19 y_6_18 + 17 y_18_6 + u_6 - u_18 <= 18
 c166: 19 y_6_19 + 17 y_19_6 + u_6 - u_19 <= 18
 c167: 17 y_0_7 + 19 y_7_0 - u_0 + u_7 <= 18
 c168: 17 y_1_7 + 19 y_7_1 - u_1 + u_7 <= 18
 c169: 17 y_2_7 + 19 y_7_2 - u_2 + u_7 <= 18
 c170: 17 y_3_7 + 19 y_7_3 - u_3 + u_7 <= 18
 c171: 17 y_4_7 + 19 y_7_4 - u_4 + u_7 <= 18
 c172: 17 y_5_7 + 19 y_7_5 - u_5 + u_7 <= 18
 c173: 17 y_6_7 + 19 y_7_6 - u_6 + u_7 <= 18
 c174: 19 y_7_8 + 17 y_8_7 + u_7 - u_8 <= 18
 c175: 19 y_7_9 + 17 y_9_7 + u_7 - u_9 <= 18
 c176: 19 y_7_10 + 17 y_10_7 + u_7 - u_10 <= 18
 c177: 19 y_7_11 + 17 y_11_7 + u_7 - u_11 <= 18
 c178: 19 y_7_12 + 17 y_12_7 + u_7 - u_12 <= 18
 c179: 19 y_7_13 + 17 y_13_7 + u_7 - u_13 <= 18
 c180: 19 y_7_14 + 17 y_14_7 + u_7 - u_14 <= 18
 c181: 19 y_7_15 + 17 y_15_7 + u_7 - u_15 <= 18
 c182: 19 y_7_16 + 17 y_16_7 + u_7 - u_16 <= 18
 c183: 19 y_7_18 + 17 y_18_7 + u_7 - u_18 <= 18
 c184: 19 y_7_19 + 17 y_19_7 + u_7 - u_19 <= 18
 c185: 17 y_0_8 + 19 y_8_0 - u_0 + u_8 <= 18
 c186: 17 y_1_8 + 19 y_8_1 - u_1 + u_8 <= 18
 c187: 17 y_2_8 + 19 y_8_2 - u_2 + u_8 <= 18
 c188: 17 y_3_8 + 19 y_8_3 - u_3 + u_8 <= 18
 c189: 17 y_4_8 + 19 y_8_4 - u_4 + u_8 <= 18
 c190: 17 y_5_8 + 19 y_8_5 - u_5 + u_8 <= 18
 c191: 17 y_6_8 + 19 y_8_6 - u_6 + u_8 <= 18
 c192: 17 y_7_8 + 19 y_8_7 - u_7 + u_8 <= 18
 c193: 19 y_8_9 + 17 y_9_8 + u_8 - u_9 <= 18
 c194: 19 y_8_10 + 17 y_10_8 + u_8 - u_10 <= 18
 c195: 19 y_8_11 + 17 y_11_8 + u_8 - u_11 <= 18
 c196: 19 y_8_12 + 17 y_12_8 + u_8 - u_12 <= 18
 c197: 19 y_8_13 + 17 y_13_8 + u_8 - u_13 <= 18
 c198: 19 y_8_14 + 17 y_14_8 + u_8 - u_14 <= 18
 c199: 19 y_8_15 + 17 y_15_8 + u_8 - u_15 <= 18
 c200: 19 y_8_16 + 17 y_16_8 + u_8 - u_16 <= 18
 c201: 19 y_8_18 + 17 y_18_8 + u_8 - u_18 <= 18
 c202: 19 y_8_19 + 17 y_19_8 + u_8 - u_19 <= 18
 c203: 17 y_0_9 + 19 y_9_0 - u_0 + u_9 <= 18
 c204: 17 y_1_9 + 19 y_9_1 - u_1 + u_9 <= 18
 c205: 17 y_2_9 + 19 y_9_2 - u_2 + u_9 <= 18
 c206: 17 y_3_9 + 19 y_9_3 - u_3 + u_9 <= 18
 c207: 17 y_4_9 + 19 y_9_4 - u_4 + u_9 <= 18
 c208: 17 y_5_9 + 19 y_9_5 - u_5 + u_9 <= 18
 c209: 17 y_6_9 + 19 y_9_6 - u_6 + u_9 <= 18
 c210: 17 y_7_9 + 19 y_9_7 - u_7 + u_9 <= 18
 c211: 17 y_8_9 + 19 y_9_8 - u_8 + u_9 <= 18
 c212: 19 y_9_10 + 17 y_10_9 + u_9 - u_10 <= 18
 c213: 19 y_9_11 + 17 y_11_9 + u_9 - u_11 <= 18
 c214: 19 y_9_12 + 17 y_12_9 + u_9 - u_12 <= 18
 c215: 19 y_9_13 + 17 y_13_9 + u_9 - u_13 <= 18
 c216: 19 y_9_14 + 17 y_14_9 + u_9 - u_14 <= 18
 c217: 19 y_9_15 + 17 y_15_9 + u_9 - u_15 <= 18
 c218: 19 y_9_16 + 17 y_16_9 + u_9 - u_16 <= 18
 c219: 19 y_9_18 + 17 y_18_9 + u_9 - u_18 <= 18
 c220: 19 y_9_19 + 17 y_19_9 + u_9 - u_19 <= 18
 c221: 17 y_0_10 + 19 y_10_0 - u_0 + u_10 <= 18
 c222: 17 y_1_10 + 19 y_10_1 - u_1 + u_10 <= 18
 c223: 17 y_2_10 + 19 y_10_2 - u_2 + u_10 <= 18
 c224: 17 y_3_10 + 19 y_10_3 - u_3 + u_10 <= 18
 c225: 17 y_4_10 + 19 y_10_4 - u_4 + u_10 <= 18
 c226: 17 y_5_10 + 19 y_10_5 - u_5 + u_10 <= 18
 c227: 17 y_6_10 + 19 y_10_6 - u_6 + u_10 <= 18
 c228: 17 y_7_10 + 19 y_10_7 - u_7 + u_10 <= 18
 c229: 17 y_8_10 + 19 y_10_8 - u_8 + u_10 <= 18
 c230: 17 y_9_10 + 19 y_10_9 - u_9 + u_10 <= 18
 c231: 19 y_10_11 + 17 y_11_10 + u_10 - u_11 <= 18
 c232: 19 y_10_12 + 17 y_12_10 + u_10 - u_12 <= 18
 c233: 19 y_10_13 + 17 y_13_10 + u_10 - u_13 <= 18
 c234: 19 y_10_14 + 17 y_14_10 + u_10 - u_14 <= 18
 c235: 19 y_10_15 + 17 y_15_10 + u_10 - u_15 <= 18
 c236: 19 y_10_16 + 17 y_16_10 + u_10 - u_16 <= 18
 c237: 19 y_10_18 + 17 y_18_10 + u_10 - u_18 <= 18
 c238: 19 y_10_19 + 17 y_19_10 + u_10 - u_19 <= 18
 c239: 17 y_0_11 + 19 y_11_0 - u_0 + u_11 <= 18
 c240: 17 y_1_11 + 19 y_11_1 - u_1 + u_11 <= 18
 c241: 17 y_2_11 + 19 y_11_2 - u_2 + u_11 <= 18
 c242: 17 y_3_11 + 19 y_11_3 - u_3 + u_11 <= 18
 c243: 17 y_4_11 + 19 y_11_4 - u_4 + u_11 <= 18
 c244: 17 y_5_11 + 19 y_11_5 - u_5 + u_11 <= 18
 c245: 17 y_6_11 + 19 y_11_6 - u_6 + u_11 <= 18
 c246: 17 y_7_11 + 19 y_11_7 - u_7 + u_11 <= 18
 c247: 17 y_8_11 + 19 y_11_8 - u_8 + u_11 <= 18
 c248: 17 y_9_11 + 19 y_11_9 - u_9 + u_11 <= 18
 c249: 17 y_10_11 + 19 y_11_10 - u_10 + u_11 <= 18
 c250: 19 y_11_12 + 17 y_12_11 + u_11 - u_12 <= 18
 c251: 19 y_11_13 + 17 y_13_11 + u_11 - u_13 <= 18
 c252: 19 y_11_14 + 17 y_14_11 + u_11 - u_14 <= 18
 c253: 19 y_11_15 + 17 y_15_11 + u_11 - u_15 <= 18
 c254: 19 y_11_16 + 17 y_16_11 + u_11 - u_16 <= 18
 c255: 19 y_11_18 + 17 y_18_11 + u_11 - u_18 <= 18
 c256: 19 y_11_19 + 17 y_19_11 + u_11 - u_19 <= 18
 c257: 17 y_0_12 + 19 y_12_0 - u_0 + u_12 <= 18
 c258: 17 y_1_12 + 19 y_12_1 - u_1 + u_12 <= 18
 c259: 17 y_2_12 + 19 y_12_2 - u_2 + u_12 <= 18
 c260: 17 y_3_12 + 19 y_12_3 - u_3 + u_12 <= 18
 c261: 17 y_4_12 + 19 y_12_4 - u_4 + u_12 <= 18
 c262: 17 y_5_12 + 19 y_12_5 - u_5 + u_12 <= 18
 c263: 17 y_6_12 + 19 y_12_6 - u_6 + u_12 <= 18
 c264: 17 y_7_12 + 19 y_12_7 - u_7 + u_12 <= 18
 c265: 17 y_8_12 + 19 y_12_8 - u_8 + u_12 <= 18
 c266: 17 y_9_12 + 19 y_12_9 - u_9 + u_12 <= 18
 c267: 17 y_10_12 + 19 y_12_10 - u_10 + u_12 <= 18
 c268: 17 y_11_12 + 19 y_12_11 - u_11 + u_12 <= 18
 c269: 19 y_12_13 + 17 y_13_12 + u_12 - u_13 <= 18
 c270: 19 y_12_14 + 17 y_14_12 + u_12 - u_14 <= 18
 c271: 19 y_12_15 + 17 y_15_12 + u_12 - u_15 <= 18
 c272: 19 y_12_16 + 17 y_16_12 + u_12 - u_16 <= 18
 c273: 19 y_12_18 + 17 y_18_12 + u_12 - u_18 <= 18
 c274: 19 y_12_19 + 17 y_19_12 + u_12 - u_19 <= 18
 c275: 17 y_0_13 + 19 y_13_0 - u_0 + u_13 <= 18
 c276: 17 y_1_13 + 19 y_13_1 - u_1 + u_13 <= 18
 c277: 17 y_2_13 + 19 y_13_2 - u_2 + u_13 <= 18
 c278: 17 y_3_13 + 19 y_13_3 - u_3 + u_13 <= 18
 c279: 17 y_4_13 + 19 y_13_4 - u_4 + u_13 <= 18
 c280: 17 y_5_13 + 19 y_13_5 - u_5 + u_13 <= 18
 c281: 17 y_6_13 + 19 y_13_6 - u_6 + u_13 <= 18
 c282: 17 y_7_13 + 19 y_13_7 - u_7 + u_13 <= 18
 c283: 17 y_8_13 + 19 y_13_8 - u_8 + u_13 <= 18
 c284: 17 y_9_13 + 19 y_13_9 - u_9 + u_13 <= 18
 c285: 17 y_10_13 + 19 y_13_10 - u_10 + u_13 <= 18
 c286: 17 y_11_13 + 19 y_13_11 - u_11 + u_13 <= 18
 c287: 17 y_12_13 + 19 y_13_12 - u_12 + u_13 <= 18
 c288: 19 y_13_14 + 17 y_14_13 + u_13 - u_14 <= 18
 c289: 19 y_13_15 + 17 y_15_13 + u_13 - u_15 <= 18
 c290: 19 y_13_16 + 17 y_16_13 + u_13 - u_16 <= 18
 c291: 19 y_13_18 + 17 y_18_13 + u_13 - u_18 <= 18
 c292: 19 y_13_19 + 17 y_19_13 + u_13 - u_19 <= 18
 c293: 17 y_0_14 + 19 y_14_0 - u_0 + u_14 <= 18
 c294: 17 y_1_14 + 19 y_14_1 - u_1 + u_14 <= 18
 c295: 17 y_2_14 + 19 y_14_2 - u_2 + u_14 <= 18
 c296: 17 y_3_14 + 19 y_14_3 - u_3 + u_14 <= 18
 c297: 17 y_4_14 + 19 y_14_4 - u_4 + u_14 <= 18
 c298: 17 y_5_14 + 19 y_14_5 - u_5 + u_14 <= 18
 c299: 17 y_6_14 + 19 y_14_6 - u_6 + u_14 <= 18
 c300: 17 y_7_14 + 19 y_14_7 - u_7 + u_14 <= 18
 c301: 17 y_8_14 + 19 y_14_8 - u_8 + u_14 <= 18
 c302: 17 y_9_14 + 19 y_14_9 - u_9 + u_14 <= 18
 c303: 17 y_10_14 + 19 y_14_10 - u_10 + u_14 <= 18
 c304: 17 y_11_14 + 19 y_14_11 - u_11 + u_14 <= 18
 c305: 17 y_12_14 + 19 y_14_12 - u_12 + u_14 <= 18
 c306: 17 y_13_14 + 19 y_14_13 - u_13 + u_14 <= 18
 c307: 19 y_14_15 + 17 y_15_14 + u_14 - u_15 <= 18
 c308: 19 y_14_16 + 17 y_16_14 + u_14 - u_16 <= 18
 c309: 19 y_14_18 + 17 y_18_14 + u_14 - u_18 <= 18
 c310: 19 y_14_19 + 17 y_19_14 + u_14 - u_19 <= 18
 c311: 17 y_0_15 + 19 y_15_0 - u_0 + u_15 <= 18
 c312: 17 y_1_15 + 19 y_15_1 - u_1 + u_15 <= 18
 c313: 17 y_2_15 + 19 y_15_2 - u_2 + u_15 <= 18
 c314: 17 y_3_15 + 19 y_15_3 - u_3 + u_15 <= 18
 c315: 17 y_4_15 + 19 y_15_4 - u_4 + u_15 <= 18
 c316: 17 y_5_15 + 19 y_15_5 - u_5 + u_15 <= 18
 c317: 17 y_6_15 + 19 y_15_6 - u_6 + u_15 <= 18
 c318: 17 y_7_15 + 19 y_15_7 - u_7 + u_15 <= 18
 c319: 17 y_8_15 + 19 y_15_8 - u_8 + u_15 <= 18
 c320: 17 y_9_15 + 19 y_15_9 - u_9 + u_15 <= 18
 c321: 17 y_10_15 + 19 y_15_10 - u_10 + u_15 <= 18
 c322: 17 y_11_15 + 19 y_15_11 - u_11 + u_15 <= 18
 c323: 17 y_12_15 + 19 y_15_12 - u_12 + u_15 <= 18
 c324: 17 y_13_15 + 19 y_15_13 - u_13 + u_15 <= 18
 c325: 17 y_14_15 + 19 y_15_14 - u_14 + u_15 <= 18
 c326: 19 y_15_16 + 17 y_16_15 + u_15 - u_16 <= 18
 c327: 19 y_15_18 + 17 y_18_15 + u_15 - u_18 <= 18
 c328: 19 y_15_19 + 17 y_19_15 + u_15 - u_19 <= 18
 c329: 17 y_0_16 + 19 y_16_0 - u_0 + u_16 <= 18
 c330: 17 y_1_16 + 19 y_16_1 - u_1 + u_16 <= 18
 c331: 17 y_2_16 + 19 y_16_2 - u_2 + u_16 <= 18
 c332: 17 y_3_16 + 19 y_16_3 - u_3 + u_16 <= 18
 c333: 17 y_4_16 + 19 y_16_4 - u_4 + u_16 <= 18
 c334: 17 y_5_16 + 19 y_16_5 - u_5 + u_16 <= 18
 c335: 17 y_6_16 + 19 y_16_6 - u_6 + u_16 <= 18
 c336: 17 y_7_16 + 19 y_16_7 - u_7 + u_16 <= 18
 c337: 17 y_8_16 + 19 y_16_8 - u_8 + u_16 <= 18
 c338: 17 y_9_16 + 19 y_16_9 - u_9 + u_16 <= 18
 c339: 17 y_10_16 + 19 y_16_10 - u_10 + u_16 <= 18
 c340: 17 y_11_16 + 19 y_16_11 - u_11 + u_16 <= 18
 c341: 17 y_12_16 + 19 y_16_12 - u_12 + u_16 <= 18
 c342: 17 y_13_16 + 19 y_16_13 - u_13 + u_16 <= 18
 c343: 17 y_14_16 + 19 y_16_14 - u_14 + u_16 <= 18
 c344: 17 y_15_16 + 19 y_16_15 - u_15 + u_16 <= 18
 c345: 19 y_16_18 + 17 y_18_16 + u_16 - u_18 <= 18
 c346: 19 y_16_19 + 17 y_19_16 + u_16 - u_19 <= 18
 c347: 17 y_0_18 + 19 y_18_0 - u_0 + u_18 <= 18
 c348: 17 y_1_18 + 19 y_18_1 - u_1 + u_18 <= 18
 c349: 17 y_2_18 + 19 y_18_2 - u_2 + u_18 <= 18
 c350: 17 y_3_18 + 19 y_18_3 - u_3 + u_18 <= 18
 c351: 17 y_4_18 + 19 y_18_4 - u_4 + u_18 <= 18
 c352: 17 y_5_18 + 19 y_18_5 - u_5 + u_18 <= 18
 c353: 17 y_6_18 + 19 y_18_6 - u_6 + u_18 <= 18
 c354: 17 y_7_18 + 19 y_18_7 - u_7 + u_18 <= 18
 c355: 17 y_8_18 + 19 y_18_8 - u_8 + u_18 <= 18
 c356: 17 y_9_18 + 19 y_18_9 - u_9 + u_18 <= 18
 c357: 17 y_10_18 + 19 y_18_10 - u_10 + u_18 <= 18
 c358: 17 y_11_18 + 19 y_18_11 - u_11 + u_18 <= 18
 c359: 17 y_12_18 + 19 y_18_12 - u_12 + u_18 <= 18
 c360: 17 y_13_18 + 19 y_18_13 - u_13 + u_18 <= 18
 c361: 17 y_14_18 + 19 y_18_14 - u_14 + u_18 <= 18
 c362: 17 y_15_18 + 19 y_18_15 - u_15 + u_18 <= 18
 c363: 17 y_16_18 + 19 y_18_16 - u_16 + u_18 <= 18
 c364: 19 y_18_19 + 17 y_19_18 + u_18 - u_19 <= 18
 c365: 17 y_0_19 + 19 y_19_0 - u_0 + u_19 <= 18
 c366: 17 y_1_19 + 19 y_19_1 - u_1 + u_19 <= 18
 c367: 17 y_2_19 + 19 y_19_2 - u_2 + u_19 <= 18
 c368: 17 y_3_19 + 19 y_19_3 - u_3 + u_19 <= 18
 c369: 17 y_4_19 + 19 y_19_4 - u_4 + u_19 <= 18
 c370: 17 y_5_19 + 19 y_19_5 - u_5 + u_19 <= 18
 c371: 17 y_6_19 + 19 y_19_6 - u_6 + u_19 <= 18
 c372: 17 y_7_19 + 19 y_19_7 - u_7 + u_19 <= 18
 c373: 17 y_8_19 + 19 y_19_8 - u_8 + u_19 <= 18
 c374: 17 y_9_19 + 19 y_19_9 - u_9 + u_19 <= 18
 c375: 17 y_10_19 + 19 y_19_10 - u_10 + u_19 <= 18
 c376: 17 y_11_19 + 19 y_19_11 - u_11 + u_19 <= 18
 c377: 17 y_12_19 + 19 y_19_12 - u_12 + u_19 <= 18
 c378: 17 y_13_19 + 19 y_19_13 - u_13 + u_19 <= 18
 c379: 17 y_14_19 + 19 y_19_14 - u_14 + u_19 <= 18
 c380: 17 y_15_19 + 19 y_19_15 - u_15 + u_19 <= 18
 c381: 17 y_16_19 + 19 y_19_16 - u_16 + u_19 <= 18
 c382: 17 y_18_19 + 19 y_19_18 - u_18 + u_19 <= 18
Bounds
 0 <= y_0_1 <= 1
 0 <= y_0_2 <= 1
 0 <= y_0_3 <= 1
 0 <= y_0_4 <= 1
 0 <= y_0_5 <= 1
 0 <= y_0_6 <= 1
 0 <= y_0_7 <= 1
 0 <= y_0_8 <= 1
 0 <= y_0_9 <= 1
 0 <= y_0_10 <= 1
 0 <= y_0_11 <= 1
 0 <= y_0_12 <= 1
 0 <= y_0_13 <= 1
 0 <= y_0_14 <= 1
 0 <= y_0_15 <= 1
 0 <= y_0_16 <= 1
 0 <= y_0_17 <= 1
 0 <= y_0_18 <= 1
 0 <= y_0_19 <= 1
 0 <= y_1_0 <= 1
 0 <= y_1_2 <= 1
 0 <= y_1_3 <= 1
 0 <= y_1_4 <= 1
 0 <= y_1_5 <= 1
 0 <= y_1_6 <= 1
 0 <= y_1_7 <= 1
 0 <= y_1_8 <= 1
 0 <= y_1_9 <= 1
 0 <= y_1_10 <= 1
 0 <= y_1_11 <= 1
 0 <= y_1_12 <= 1
 0 <= y_1_13 <= 1
 0 <= y_1_14 <= 1
 0 <= y_1_15 <= 1
 0 <= y_1_16 <= 1
 0 <= y_1_17 <= 1
 0 <= y_1_18 <= 1
 0 <= y_1_19 <= 1
 0 <= y_2_0 <= 1
 0 <= y_2_1 <= 1
 0 <= y_2_3 <= 1
 0 <= y_2_4 <= 1
 0 <= y_2_5 <= 1
 0 <= y_2_6 <= 1
 0 <= y_2_7 <= 1
 0 <= y_2_8 <= 1
 0 <= y_2_9 <= 1
 0 <= y_2_10 <= 1
 0 <= y_2_11 <= 1
 0 <= y_2_12 <= 1
 0 <= y_2_13 <= 1
 0 <= y_2_14 <= 1
 0 <= y_2_15 <= 1
 0 <= y_2_16 <= 1
 0 <= y_2_17 <= 1
 0 <= y_2_18 <= 1
 0 <= y_2_19 <= 1
 0 <= y_3_0 <= 1
 0 <= y_3_1 <= 1
 0 <= y_3_2 <= 1
 0 <= y_3_4 <= 1
 0 <= y_3_5 <= 1
 0 <= y_3_6 <= 1
 0 <= y_3_7 <= 1
 0 <= y_3_8 <= 1
 0 <= y_3_9 <= 1
 0 <= y_3_10 <= 1
 0 <= y_3_11 <= 1
 0 <= y_3_12 <= 1
 0 <= y_3_13 <= 1
 0 <= y_3_14 <= 1
 0 <= y_3_15 <= 1
 0 <= y_3_16 <= 1
 0 <= y_3_17 <= 1
 0 <= y_3_18 <= 1
 0 <= y_3_19 <= 1
 0 <= y_4_0 <= 1
 0 <= y_4_1 <= 1
 0 <= y_4_2 <= 1
 0 <= y_4_3 <= 1
 0 <= y_4_5 <= 1
 0 <= y_4_6 <= 1
 0 <= y_4_7 <= 1
 0 <= y_4_8 <= 1
 0 <= y_4_9 <= 1
 0 <= y_4_10 <= 1
 0 <= y_4_11 <= 1
 0 <= y_4_12 <= 1
 0 <= y_4_13 <= 1
 0 <= y_4_14 <= 1
 0 <= y_4_15 <= 1
 0 <= y_4_16 <= 1
 0 <= y_4_17 <= 1
 0 <= y_4_18 <= 1
 0 <= y_4_19 <= 1
 0 <= y_5_0 <= 1
 0 <= y_5_1 <= 1
 0 <= y_5_2 <= 1
 0 <= y_5_3 <= 1
 0 <= y_5_4 <= 1
 0 <= y_5_6 <= 1
 0 <= y_5_7 <= 1
 0 <= y_5_8 <= 1
 0 <= y_5_9 <= 1
 0 <= y_5_10 <= 1
 0 <= y_5_11 <= 1
 0 <= y_5_12 <= 1
 0 <= y_5_13 <= 1
 0 <= y_5_14 <= 1
 0 <= y_5_15 <= 1
 0 <= y_5_16 <= 1
 0 <= y_5_17 <= 1
 0 <= y_5_18 <= 1
 0 <= y_5_19 <= 1
 0 <= y_6_0 <= 1
 0 <= y_6_1 <= 1
 0 <= y_6_2 <= 1
 0 <= y_6_3 <= 1
 0 <= y_6_4 <= 1
 0 <= y_6_5 <= 1
 0 <= y_6_7 <= 1
 0 <= y_6_8 <= 1
 0 <= y_6_9 <= 1
 0 <= y_6_10 <= 1
 0 <= y_6_11 <= 1
 0 <= y_6_12 <= 1
 0 <= y_6_13 <= 1
 0 <= y_6_14 <= 1
 0 <= y_6_15 <= 1
 0 <= y_6_16 <= 1
 0 <= y_6_17 <= 1
 0 <= y_6_18 <= 1
 0 <= y_6_19 <= 1
 0 <= y_7_0 <= 1
 0 <= y_7_1 <= 1
 0 <= y_7_2 <= 1
 0 <= y_7_3 <= 1
 0 <= y_7_4 <= 1
 0 <= y_7_5 <= 1
 0 <= y_7_6 <= 1
 0 <= y_7_8 <= 1
 0 <= y_7_9 <= 1
 0 <= y_7_10 <= 1
 0 <= y_7_11 <= 1
 0 <= y_7_12 <= 1
 0 <= y_7_13 <= 1
 0 <= y_7_14 <= 1
 0 <= y_7_15 <= 1
 0 <= y_7_16 <= 1
 0 <= y_7_17 <= 1
 0 <= y_7_18 <= 1
 0 <= y_7_19 <= 1
 0 <= y_8_0 <= 1
 0 <= y_8_1 <= 1
 0 <= y_8_2 <= 1
 0 <= y_8_3 <= 1
 0 <= y_8_4 <= 1
 0 <= y_8_5 <= 1
 0 <= y_8_6 <= 1
 0 <= y_8_7 <= 1
 0 <= y_8_9 <= 1
 0 <= y_8_10 <= 1
 0 <= y_8_11 <= 1
 0 <= y_8_12 <= 1
 0 <= y_8_13 <= 1
 0 <= y_8_14 <= 1
 0 <= y_8_15 <= 1
 0 <= y_8_16 <= 1
 0 <= y_8_17 <= 1
 0 <= y_8_18 <= 1
 0 <= y_8_19 <= 1
 0 <= y_9_0 <= 1
 0 <= y_9_1 <= 1
 0 <= y_9_2 <= 1
 0 <= y_9_3 <= 1
 0 <= y_9_4 <= 1
 0 <= y_9_5 <= 1
 0 <= y_9_6 <= 1
 0 <= y_9_7 <= 1
 0 <= y_9_8 <= 1
 0 <= y_9_10 <= 1
 0 <= y_9_11 <= 1
 0 <= y_9_12 <= 1
 0 <= y_9_13 <= 1
 0 <= y_9_14 <= 1
 0 <= y_9_15 <= 1
 0 <= y_9_16 <= 1
 0 <= y_9_17 <= 1
 0 <= y_9_18 <= 1
 0 <= y_9_19 <= 1
 0 <= y_10_0 <= 1
 0 <= y_10_1 <= 1
 0 <= y_10_2 <= 1
 0 <= y_10_3 <= 1
 0 <= y_10_4 <= 1
 0 <= y_10_5 <= 1
 0 <= y_10_6 <= 1
 0 <= y_10_7 <= 1
 0 <= y_10_8 <= 1
 0 <= y_10_9 <= 1
 0 <= y_10_11 <= 1
 0 <= y_10_12 <= 1
 0 <= y_10_13 <= 1
 0 <= y_10_14 <= 1
 0 <= y_10_15 <= 1
 0 <= y_10_16 <= 1
 0 <= y_10_17 <= 1
 0 <= y_10_18 <= 1
 0 <= y_10_19 <= 1
 0 <= y_11_0 <= 1
 0 <= y_11_1 <= 1
 0 <= y_11_2 <= 1
 0 <= y_11_3 <= 1
 0 <= y_11_4 <= 1
 0 <= y_11_5 <= 1
 0 <= y_11_6 <= 1
 0 <= y_11_7 <= 1
 0 <= y_11_8 <= 1
 0 <= y_11_9 <= 1
 0 <= y_11_10 <= 1
 0 <= y_11_12 <= 1
 0 <= y_11_13 <= 1
 0 <= y_11_14 <= 1
 0 <= y_11_15 <= 1
 0 <= y_11_16 <= 1
 0 <= y_11_17 <= 1
 0 <= y_11_18 <= 1
 0 <= y_11_19 <= 1
 0 <= y_12_0 <= 1
 0 <= y_12_1 <= 1
 0 <= y_12_2 <= 1
 0 <= y_12_3 <= 1
 0 <= y_12_4 <= 1
 0 <= y_12_5 <= 1
 0 <= y_12_6 <= 1
 0 <= y_12_7 <= 1
 0 <= y_12_8 <= 1
 0 <= y_12_9 <= 1
 0 <= y_12_10 <= 1
 0 <= y_12_11 <= 1
 0 <= y_12_13 <= 1
 0 <= y_12_14 <= 1
 0 <= y_12_15 <= 1
 0 <= y_12_16 <= 1
 0 <= y_12_17 <= 1
 0 <= y_12_18 <= 1
 0 <= y_12_19 <= 1
 0 <= y_13_0 <= 1
 0 <= y_13_1 <= 1
 0 <= y_13_2 <= 1
 0 <= y_13_3 <= 1
 0 <= y_13_4 <= 1
 0 <= y_13_5 <= 1
 0 <= y_13_6 <= 1
 0 <= y_13_7 <= 1
 0 <= y_13_8 <= 1
 0 <= y_13_9 <= 1
 0 <= y_13_10 <= 1
 0 <= y_13_11 <= 1
 0 <= y_13_12 <= 1
 0 <= y_13_14 <= 1
 0 <= y_13_15 <= 1
 0 <= y_13_16 <= 1
 0 <= y_13_17 <= 1
 0 <= y_13_18 <= 1
 0 <= y_13_19 <= 1
 0 <= y_14_0 <= 1
 0 <= y_14_1 <= 1
 0 <= y_14_2 <= 1
 0 <= y_14_3 <= 1
 0 <= y_14_4 <= 1
 0 <= y_14_5 <= 1
 0 <= y_14_6 <= 1
 0 <= y_14_7 <= 1
 0 <= y_14_8 <= 1
 0 <= y_14_9 <= 1
 0 <= y_14_10 <= 1
 0 <= y_14_11 <= 1
 0 <= y_14_12 <= 1
 0 <= y_14_13 <= 1
 0 <= y_14_15 <= 1
 0 <= y_14_16 <= 1
 0 <= y_14_17 <= 1
 0 <= y_14_18 <= 1
 0 <= y_14_19 <= 1
 0 <= y_15_0 <= 1
 0 <= y_15_1 <= 1
 0 <= y_15_2 <= 1
 0 <= y_15_3 <= 1
 0 <= y_15_4 <= 1
 0 <= y_15_5 <= 1
 0 <= y_15_6 <= 1
 0 <= y_15_7 <= 1
 0 <= y_15_8 <= 1
 0 <= y_15_9 <= 1
 0 <= y_15_10 <= 1
 0 <= y_15_11 <= 1
 0 <= y_15_12 <= 1
 0 <= y_15_13 <= 1
 0 <= y_15_14 <= 1
 0 <= y_15_16 <= 1
 0 <= y_15_17 <= 1
 0 <= y_15_18 <= 1
 0 <= y_15_19 <= 1
 0 <= y_16_0 <= 1
 0 <= y_16_1 <= 1
 0 <= y_16_2 <= 1
 0 <= y_16_3 <= 1
 0 <= y_16_4 <= 1
 0 <= y_16_5 <= 1
 0 <= y_16_6 <= 1
 0 <= y_16_7 <= 1
 0 <= y_16_8 <= 1
 0 <= y_16_9 <= 1
 0 <= y_16_10 <= 1
 0 <= y_16_11 <= 1
 0 <= y_16_12 <= 1
 0 <= y_16_13 <= 1
 0 <= y_16_14 <= 1
 0 <= y_16_15 <= 1
 0 <= y_16_17 <= 1
 0 <= y_16_18 <= 1
 0 <= y_16_19 <= 1
 0 <= y_17_0 <= 1
 0 <= y_17_1 <= 1
 0 <= y_17_2 <= 1
 0 <= y_17_3 <= 1
 0 <= y_17_4 <= 1
 0 <= y_17_5 <= 1
 0 <= y_17_6 <= 1
 0 <= y_17_7 <= 1
 0 <= y_17_8 <= 1
 0 <= y_17_9 <= 1
 0 <= y_17_10 <= 1
 0 <= y_17_11 <= 1
 0 <= y_17_12 <= 1
 0 <= y_17_13 <= 1
 0 <= y_17_14 <= 1
 0 <= y_17_15 <= 1
 0 <= y_17_16 <= 1
 0 <= y_17_18 <= 1
 0 <= y_17_19 <= 1
 0 <= y_18_0 <= 1
 0 <= y_18_1 <= 1
 0 <= y_18_2 <= 1
 0 <= y_18_3 <= 1
 0 <= y_18_4 <= 1
 0 <= y_18_5 <= 1
 0 <= y_18_6 <= 1
 0 <= y_18_7 <= 1
 0 <= y_18_8 <= 1
 0 <= y_18_9 <= 1
 0 <= y_18_10 <= 1
 0 <= y_18_11 <= 1
 0 <= y_18_12 <= 1
 0 <= y_18_13 <= 1
 0 <= y_18_14 <= 1
 0 <= y_18_15 <= 1
 0 <= y_18_16 <= 1
 0 <= y_18_17 <= 1
 0 <= y_18_19 <= 1
 0 <= y_19_0 <= 1
 0 <= y_19_1 <= 1
 0 <= y_19_2 <= 1
 0 <= y_19_3 <= 1
 0 <= y_19_4 <= 1
 0 <= y_19_5 <= 1
 0 <= y_19_6 <= 1
 0 <= y_19_7 <= 1
 0 <= y_19_8 <= 1
 0 <= y_19_9 <= 1
 0 <= y_19_10 <= 1
 0 <= y_19_11 <= 1
 0 <= y_19_12 <= 1
 0 <= y_19_13 <= 1
 0 <= y_19_14 <= 1
 0 <= y_19_15 <= 1
 0 <= y_19_16 <= 1
 0 <= y_19_17 <= 1
 0 <= y_19_18 <= 1
 1 <= u_0 <= 20
 1 <= u_1 <= 20
 1 <= u_2 <= 20
 1 <= u_3 <= 20
 1 <= u_4 <= 20
 1 <= u_5 <= 20
 1 <= u_6 <= 20
 1 <= u_7 <= 20
 1 <= u_8 <= 20
 1 <= u_9 <= 20
 1 <= u_10 <= 20
 1 <= u_11 <= 20
 1 <= u_12 <= 20
 1 <= u_13 <= 20
 1 <= u_14 <= 20
 1 <= u_15 <= 20
 1 <= u_16 <= 20
      u_17 = 1
 1 <= u_18 <= 20
 1 <= u_19 <= 20
Binaries
 y_0_1  y_0_2  y_0_3  y_0_4  y_0_5  y_0_6  y_0_7  y_0_8  y_0_9  y_0_10  y_0_11 
 y_0_12  y_0_13  y_0_14  y_0_15  y_0_16  y_0_17  y_0_18  y_0_19  y_1_0  y_1_2 
 y_1_3  y_1_4  y_1_5  y_1_6  y_1_7  y_1_8  y_1_9  y_1_10  y_1_11  y_1_12 
 y_1_13  y_1_14  y_1_15  y_1_16  y_1_17  y_1_18  y_1_19  y_2_0  y_2_1  y_2_3 
 y_2_4  y_2_5  y_2_6  y_2_7  y_2_8  y_2_9  y_2_10  y_2_11  y_2_12  y_2_13 
 y_2_14  y_2_15  y_2_16  y_2_17  y_2_18  y_2_19  y_3_0  y_3_1  y_3_2  y_3_4 
 y_3_5  y_3_6  y_3_7  y_3_8  y_3_9  y_3_10  y_3_11  y_3_12  y_3_13  y_3_14 
 y_3_15  y_3_16  y_3_17  y_3_18  y_3_19  y_4_0  y_4_1  y_4_2  y_4_3  y_4_5 
 y_4_6  y_4_7  y_4_8  y_4_9  y_4_10  y_4_11  y_4_12  y_4_13  y_4_14  y_4_15 
 y_4_16  y_4_17  y_4_18  y_4_19  y_5_0  y_5_1  y_5_2  y_5_3  y_5_4  y_5_6 
 y_5_7  y_5_8  y_5_9  y_5_10  y_5_11  y_5_12  y_5_13  y_5_14  y_5_15  y_5_16 
 y_5_17  y_5_18  y_5_19  y_6_0  y_6_1  y_6_2  y_6_3  y_6_4  y_6_5  y_6_7 
 y_6_8  y_6_9  y_6_10  y_6_11  y_6_12  y_6_13  y_6_14  y_6_15  y_6_16  y_6_17 
 y_6_18  y_6_19  y_7_0  y_7_1  y_7_2  y_7_3  y_7_4  y_7_5  y_7_6  y_7_8  y_7_9 
 y_7_10  y_7_11  y_7_12  y_7_13  y_7_14  y_7_15  y_7_16  y_7_17  y_7_18 
 y_7_19  y_8_0  y_8_1  y_8_2  y_8_3  y_8_4  y_8_5  y_8_6  y_8_7  y_8_9  y_8_10 
 y_8_11  y_8_12  y_8_13  y_8_14  y_8_15  y_8_16  y_8_17  y_8_18  y_8_19  y_9_0 
 y_9_1  y_9_2  y_9_3  y_9_4  y_9_5  y_9_6  y_9_7  y_9_8  y_9_10  y_9_11 
 y_9_12  y_9_13  y_9_14  y_9_15  y_9_16  y_9_17  y_9_18  y_9_19  y_10_0 
 y_10_1  y_10_2  y_10_3  y_10_4  y_10_5  y_10_6  y_10_7  y_10_8  y_10_9 
 y_10_11  y_10_12  y_10_13  y_10_14  y_10_15  y_10_16  y_10_17  y_10_18 
 y_10_19  y_11_0  y_11_1  y_11_2  y_11_3  y_11_4  y_11_5  y_11_6  y_11_7 
 y_11_8  y_11_9  y_11_10  y_11_12  y_11_13  y_11_14  y_11_15  y_11_16  y_11_17 
 y_11_18  y_11_19  y_12_0  y_12_1  y_12_2  y_12_3  y_12_4  y_12_5  y_12_6 
 y_12_7  y_12_8  y_12_9  y_12_10  y_12_11  y_12_13  y_12_14  y_12_15  y_12_16 
 y_12_17  y_12_18  y_12_19  y_13_0  y_13_1  y_13_2  y_13_3  y_13_4  y_13_5 
 y_13_6  y_13_7  y_13_8  y_13_9  y_13_10  y_13_11  y_13_12  y_13_14  y_13_15 
 y_13_16  y_13_17  y_13_18  y_13_19  y_14_0  y_14_1  y_14_2  y_14_3  y_14_4 
 y_14_5  y_14_6  y_14_7  y_14_8  y_14_9  y_14_10  y_14_11  y_14_12  y_14_13 
 y_14_15  y_14_16  y_14_17  y_14_18  y_14_19  y_15_0  y_15_1  y_15_2  y_15_3 
 y_15_4  y_15_5  y_15_6  y_15_7  y_15_8  y_15_9  y_15_10  y_15_11  y_15_12 
 y_15_13  y_15_14  y_15_16  y_15_17  y_15_18  y_15_19  y_16_0  y_16_1  y_16_2 
 y_16_3  y_16_4  y_16_5  y_16_6  y_16_7  y_16_8  y_16_9  y_16_10  y_16_11 
 y_16_12  y_16_13  y_16_14  y_16_15  y_16_17  y_16_18  y_16_19  y_17_0  y_17_1 
 y_17_2  y_17_3  y_17_4  y_17_5  y_17_6  y_17_7  y_17_8  y_17_9  y_17_10 
 y_17_11  y_17_12  y_17_13  y_17_14  y_17_15  y_17_16  y_17_18  y_17_19 
 y_18_0  y_18_1  y_18_2  y_18_3  y_18_4  y_18_5  y_18_6  y_18_7  y_18_8 
 y_18_9  y_18_10  y_18_11  y_18_12  y_18_13  y_18_14  y_18_15  y_18_16 
 y_18_17  y_18_19  y_19_0  y_19_1  y_19_2  y_19_3  y_19_4  y_19_5  y_19_6 
 y_19_7  y_19_8  y_19_9  y_19_10  y_19_11  y_19_12  y_19_13  y_19_14  y_19_15 
 y_19_16  y_19_17  y_19_18 
End
